Sat 19 May 19:12:12 CEST 2018
CPXPARAM_TimeLimit                               45
CPXPARAM_Threads                                 1
CPXPARAM_MIP_Strategy_CallbackReducedLP          0
Tried aggregator 4 times.
MIP Presolve eliminated 3613 rows and 3930 columns.
MIP Presolve modified 4712 coefficients.
Aggregator did 11428 substitutions.
Reduced MIP has 10854 rows, 8009 columns, and 23666 nonzeros.
Reduced MIP has 7337 binaries, 10 generals, 0 SOSs, and 779 indicators.
Presolve time = 0.14 sec. (310.91 ticks)
Probing changed sense of 170 constraints.
Probing time = 0.31 sec. (317.43 ticks)
Cover probing fixed 0 vars, tightened 2 bounds.
Tried aggregator 3 times.
MIP Presolve eliminated 3408 rows and 618 columns.
MIP Presolve modified 672 coefficients.
Aggregator did 4867 substitutions.
Reduced MIP has 2579 rows, 2524 columns, and 9864 nonzeros.
Reduced MIP has 2130 binaries, 394 generals, 0 SOSs, and 779 indicators.
Presolve time = 0.02 sec. (31.31 ticks)
Probing time = 0.05 sec. (45.14 ticks)
Cover probing fixed 0 vars, tightened 6 bounds.
Tried aggregator 3 times.
MIP Presolve modified 10 coefficients.
Aggregator did 660 substitutions.
Reduced MIP has 1919 rows, 1864 columns, and 8544 nonzeros.
Reduced MIP has 1470 binaries, 394 generals, 0 SOSs, and 779 indicators.
Presolve time = 0.01 sec. (12.02 ticks)
Probing fixed 0 vars, tightened 1 bounds.
Probing time = 0.05 sec. (40.00 ticks)
Tried aggregator 1 time.
Reduced MIP has 1919 rows, 1864 columns, and 8544 nonzeros.
Reduced MIP has 1470 binaries, 394 generals, 0 SOSs, and 779 indicators.
Presolve time = 0.01 sec. (7.14 ticks)
Probing time = 0.00 sec. (4.20 ticks)
Clique table members: 38086.
MIP emphasis: balance optimality and feasibility.
MIP search method: dynamic search.
Parallel mode: none, using 1 thread.
Root relaxation solution time = 0.01 sec. (10.83 ticks)

        Nodes                                         Cuts/
   Node  Left     Objective  IInf  Best Integer    Best Bound    ItCnt     Gap

      0     0        7.0000   847                      7.0000      185         
      0     0        7.0000   764                Cliques: 579      424         
      0     0        7.0000   587                Cliques: 579      616         
      0     0        7.0000   554                Cliques: 579      861         
      0     0        7.0000   444                Cliques: 579     1027         
      0     0        7.0000   523                   Cuts: 102     1434         
      0     0        7.0000   280                    Cuts: 23     1671         
      0     0        7.0000   213                Cliques: 579     1776         
      0     0        7.0000   461                   Cuts: 579     2075         
      0     2        7.0000   429                      7.0000     2075         
Elapsed time = 5.72 sec. (6568.37 ticks, tree = 0.01 MB, solutions = 0)
      8    10        7.0000    52                      7.0000     4648         
     12    14        7.0000   499                      7.0000     8033         
     30    32       14.4419    92                      7.0000    10591         
*    74    26      integral     0       39.0000        7.0000    11240   82.05%
     75    25        7.0000    26       39.0000        7.0000    13279   82.05%
*   120+   56                           38.0000        7.0000            81.58%
    125    52        7.0000   202       38.0000        7.0000    16021   81.58%
*   170+   78                           37.0000        7.0000            81.08%
    171    78        7.0000    45       37.0000        7.0000    17360   81.08%
*   180+   75                           36.0000        7.0000            80.56%
*   205    43      integral     0       34.0000        7.0000    17944   79.41%
    208    40    infeasible             34.0000        7.0000    20051   79.41%
    215    33    infeasible             34.0000       15.0000    22720   55.88%
    228    20    infeasible             34.0000       28.0000    25593   17.65%

Clique cuts applied:  463
Implied bound cuts applied:  86
Zero-half cuts applied:  1

Root node processing (before b&c):
  Real time             =    5.71 sec. (6555.57 ticks)
Sequential b&c:
  Real time             =    3.11 sec. (3335.50 ticks)
                          ------------
Total (root+branch&cut) =    8.82 sec. (9891.07 ticks)
   | W
 L | 0 1 2 
----------
 0 | . 7 8 
 1 | 1 7 8 
 2 | 9 7 . 
 3 | 9 7 . 
 4 | 3 3 3 
 5 | 3 3 3 
 6 | 3 3 3 
 7 | 3 3 3 
 8 | 3 3 3 
 9 | 3 3 3 
10 | 2 2 2 
11 | 2 2 2 
12 | 2 2 2 
13 | 2 2 2 
14 | 2 2 2 
15 | 2 2 2 
16 | 6 6 6 
17 | 6 6 6 
18 | 6 6 6 
19 | 6 6 6 
20 | 6 6 6 
21 | 6 6 6 
22 | 4 4 4 
23 | 4 4 4 
24 | 4 4 4 
25 | 4 4 4 
26 | 4 4 4 
27 | 4 4 4 
28 | 5 5 5 
29 | 5 5 5 
30 | 5 5 5 
31 | 5 5 5 
32 | 5 5 5 
33 | 5 5 5 
34 | . . . 
35 | . . . 
36 | . . . 
37 | . . . 
38 | . . . 

Boxes' corners:      (w,l)
    Box 1 is at 
        top left     (0,1)
        bottom right (0,1)

    Box 2 is at 
        top left     (0,10)
        bottom right (2,15)

    Box 3 is at 
        top left     (0,4)
        bottom right (2,9)

    Box 4 is at 
        top left     (0,22)
        bottom right (2,27)

    Box 5 is at 
        top left     (0,28)
        bottom right (2,33)

    Box 6 is at 
        top left     (0,16)
        bottom right (2,21)

    Box 7 is at 
        top left     (1,0)
        bottom right (1,3)

    Box 8 is at 
        top left     (2,0)
        bottom right (2,1)

    Box 9 is at 
        top left     (0,2)
        bottom right (0,3)

    Roll length used: 34
In 8.95 seconds
